certificates/rado_a7_c277_N40.cnf
c Rad2 upper bound instance: x1 + 7*x2 - x3 = 277, interval [1,40]
p cnf 40 294
1 4 40 0
-1 -4 -40 0
2 5 40 0
-2 -5 -40 0
3 6 40 0
-3 -6 -40 0
4 7 40 0
-4 -7 -40 0
1 5 39 0
-1 -5 -39 0
5 8 40 0
-5 -8 -40 0
2 6 39 0
-2 -6 -39 0
6 9 40 0
-6 -9 -40 0
3 7 39 0
-3 -7 -39 0
7 10 40 0
-7 -10 -40 0
4 8 39 0
-4 -8 -39 0
8 11 40 0
-8 -11 -40 0
5 9 39 0
-5 -9 -39 0
9 12 40 0
-9 -12 -40 0
6 10 39 0
-6 -10 -39 0
10 13 40 0
-10 -13 -40 0
7 11 39 0
-7 -11 -39 0
11 14 40 0
-11 -14 -40 0
1 12 38 0
-1 -12 -38 0
8 12 39 0
-8 -12 -39 0
12 15 40 0
-12 -15 -40 0
2 13 38 0
-2 -13 -38 0
9 13 39 0
-9 -13 -39 0
13 16 40 0
-13 -16 -40 0
3 14 38 0
-3 -14 -38 0
10 14 39 0
-10 -14 -39 0
14 17 40 0
-14 -17 -40 0
4 15 38 0
-4 -15 -38 0
11 15 39 0
-11 -15 -39 0
15 18 40 0
-15 -18 -40 0
5 16 38 0
-5 -16 -38 0
12 16 39 0
-12 -16 -39 0
16 19 40 0
-16 -19 -40 0
6 17 38 0
-6 -17 -38 0
13 17 39 0
-13 -17 -39 0
17 20 40 0
-17 -20 -40 0
7 18 38 0
-7 -18 -38 0
14 18 39 0
-14 -18 -39 0
18 21 40 0
-18 -21 -40 0
1 19 37 0
-1 -19 -37 0
8 19 38 0
-8 -19 -38 0
15 19 39 0
-15 -19 -39 0
19 22 40 0
-19 -22 -40 0
2 20 37 0
-2 -20 -37 0
9 20 38 0
-9 -20 -38 0
16 20 39 0
-16 -20 -39 0
20 23 40 0
-20 -23 -40 0
3 21 37 0
-3 -21 -37 0
10 21 38 0
-10 -21 -38 0
17 21 39 0
-17 -21 -39 0
21 24 40 0
-21 -24 -40 0
4 22 37 0
-4 -22 -37 0
11 22 38 0
-11 -22 -38 0
18 22 39 0
-18 -22 -39 0
22 25 40 0
-22 -25 -40 0
5 23 37 0
-5 -23 -37 0
12 23 38 0
-12 -23 -38 0
19 23 39 0
-19 -23 -39 0
23 26 40 0
-23 -26 -40 0
6 24 37 0
-6 -24 -37 0
13 24 38 0
-13 -24 -38 0
20 24 39 0
-20 -24 -39 0
24 27 40 0
-24 -27 -40 0
7 25 37 0
-7 -25 -37 0
14 25 38 0
-14 -25 -38 0
21 25 39 0
-21 -25 -39 0
25 28 40 0
-25 -28 -40 0
1 26 36 0
-1 -26 -36 0
8 26 37 0
-8 -26 -37 0
15 26 38 0
-15 -26 -38 0
22 26 39 0
-22 -26 -39 0
26 29 40 0
-26 -29 -40 0
2 27 36 0
-2 -27 -36 0
9 27 37 0
-9 -27 -37 0
16 27 38 0
-16 -27 -38 0
23 27 39 0
-23 -27 -39 0
27 30 40 0
-27 -30 -40 0
3 28 36 0
-3 -28 -36 0
10 28 37 0
-10 -28 -37 0
17 28 38 0
-17 -28 -38 0
24 28 39 0
-24 -28 -39 0
28 31 40 0
-28 -31 -40 0
4 29 36 0
-4 -29 -36 0
11 29 37 0
-11 -29 -37 0
18 29 38 0
-18 -29 -38 0
25 29 39 0
-25 -29 -39 0
29 32 40 0
-29 -32 -40 0
5 30 36 0
-5 -30 -36 0
12 30 37 0
-12 -30 -37 0
19 30 38 0
-19 -30 -38 0
26 30 39 0
-26 -30 -39 0
30 33 40 0
-30 -33 -40 0
6 31 36 0
-6 -31 -36 0
13 31 37 0
-13 -31 -37 0
20 31 38 0
-20 -31 -38 0
27 31 39 0
-27 -31 -39 0
31 34 40 0
-31 -34 -40 0
7 32 36 0
-7 -32 -36 0
14 32 37 0
-14 -32 -37 0
21 32 38 0
-21 -32 -38 0
28 32 39 0
-28 -32 -39 0
32 35 40 0
-32 -35 -40 0
1 33 35 0
-1 -33 -35 0
8 33 36 0
-8 -33 -36 0
15 33 37 0
-15 -33 -37 0
22 33 38 0
-22 -33 -38 0
29 33 39 0
-29 -33 -39 0
33 36 40 0
-33 -36 -40 0
2 34 35 0
-2 -34 -35 0
9 34 36 0
-9 -34 -36 0
16 34 37 0
-16 -34 -37 0
23 34 38 0
-23 -34 -38 0
30 34 39 0
-30 -34 -39 0
34 37 40 0
-34 -37 -40 0
3 35 0
-3 -35 0
10 35 36 0
-10 -35 -36 0
17 35 37 0
-17 -35 -37 0
24 35 38 0
-24 -35 -38 0
31 35 39 0
-31 -35 -39 0
35 38 40 0
-35 -38 -40 0
4 35 36 0
-4 -35 -36 0
11 36 0
-11 -36 0
18 36 37 0
-18 -36 -37 0
25 36 38 0
-25 -36 -38 0
32 36 39 0
-32 -36 -39 0
36 39 40 0
-36 -39 -40 0
5 35 37 0
-5 -35 -37 0
12 36 37 0
-12 -36 -37 0
19 37 0
-19 -37 0
26 37 38 0
-26 -37 -38 0
33 37 39 0
-33 -37 -39 0
37 40 0
-37 -40 0
6 35 38 0
-6 -35 -38 0
13 36 38 0
-13 -36 -38 0
20 37 38 0
-20 -37 -38 0
27 38 0
-27 -38 0
34 38 39 0
-34 -38 -39 0
7 35 39 0
-7 -35 -39 0
14 36 39 0
-14 -36 -39 0
21 37 39 0
-21 -37 -39 0
28 38 39 0
-28 -38 -39 0
35 39 0
-35 -39 0
1 34 40 0
-1 -34 -40 0
8 35 40 0
-8 -35 -40 0
15 36 40 0
-15 -36 -40 0
22 37 40 0
-22 -37 -40 0
29 38 40 0
-29 -38 -40 0
