certificates/rado_a7_c277_N40.drat
-40 0
37 0
-19 0
16 0
22 0
-34 0
-4 0
31 0
1 0
7 0
-13 0
-25 0
10 0
28 0
0
